p edge 34 79
e 9 21
e 2 3
e 2 19
e 3 19
e 7 9
e 7 19
e 9 19
e 21 23
e 21 27
e 23 27
e 2 9
e 2 20
e 3 9
e 3 20
e 9 20
e 1 10
e 1 25
e 10 25
e 7 28
e 7 30
e 7 31
e 28 30
e 28 31
e 30 31
e 15 19
e 17 20
e 17 29
e 20 29
e 27 32
e 24 31
e 24 28
e 24 33
e 28 33
e 15 34
e 19 34
e 6 19
e 26 30
e 26 31
e 26 28
e 21 33
e 9 10
e 9 25
e 6 10
e 6 15
e 6 25
e 10 15
e 15 25
e 13 17
e 13 20
e 13 23
e 13 25
e 17 23
e 17 25
e 20 23
e 20 25
e 23 25
e 13 27
e 13 29
e 20 27
e 23 29
e 27 29
e 29 33
e 8 26
e 18 25
e 18 33
e 25 33
e 5 25
e 8 14
e 4 8
e 4 34
e 8 34
e 18 22
e 32 34
e 14 32
e 11 16
e 22 33
e 18 32
e 22 32
e 12 16
